NAME     int0sum_i0_10
ROWS
     L R0001
     L R0002
     L R0003
     L R0004
     L R0005
     L R0006
     L R0007
     L R0008
     N Rupobj
COLUMNS
     INT1     'MARKER'     'INTORG'
     C0001     R0001     8
     C0001     R0002     1
     C0001     R0003     9
     C0001     R0004     9
     C0001     R0005     1
     C0001     R0006     10
     C0001     R0007     10
     C0001     R0008     2
     C0001    Rupobj     13
     C0002     R0001     3
     C0002     R0002     1
     C0002     R0003     6
     C0002     R0004     3
     C0002     R0005     2
     C0002     R0006     6
     C0002     R0007     10
     C0002     R0008     10
     C0002    Rupobj     50
     C0003     R0001     10
     C0003     R0002     10
     C0003     R0003     1
     C0003     R0004     7
     C0003     R0005     10
     C0003     R0006     10
     C0003     R0007     10
     C0003     R0008     1
     C0003    Rupobj     0
     C0004     R0001     8
     C0004     R0002     8
     C0004     R0003     3
     C0004     R0004     1
     C0004     R0005     0
     C0004     R0006     4
     C0004     R0007     1
     C0004     R0008     10
     C0004    Rupobj     14
     C0005     R0001     8
     C0005     R0002     9
     C0005     R0003     10
     C0005     R0004     5
     C0005     R0005     7
     C0005     R0006     8
     C0005     R0007     0
     C0005     R0008     3
     C0005    Rupobj     35
     C0006     R0001     2
     C0006     R0002     10
     C0006     R0003     7
     C0006     R0004     7
     C0006     R0005     4
     C0006     R0006     8
     C0006     R0007     8
     C0006     R0008     8
     C0006    Rupobj     -2
     C0007     R0001     4
     C0007     R0002     4
     C0007     R0003     7
     C0007     R0004     1
     C0007     R0005     1
     C0007     R0006     3
     C0007     R0007     7
     C0007     R0008     8
     C0007    Rupobj     -46
     C0008     R0001     3
     C0008     R0002     3
     C0008     R0003     9
     C0008     R0004     0
     C0008     R0005     1
     C0008     R0006     1
     C0008     R0007     10
     C0008     R0008     9
     C0008    Rupobj     33
     C0009     R0001     7
     C0009     R0002     1
     C0009     R0003     3
     C0009     R0004     8
     C0009     R0005     10
     C0009     R0006     5
     C0009     R0007     0
     C0009     R0008     7
     C0009    Rupobj     -5
     C0010     R0001     1
     C0010     R0002     4
     C0010     R0003     2
     C0010     R0004     8
     C0010     R0005     0
     C0010     R0006     8
     C0010     R0007     0
     C0010     R0008     2
     C0010    Rupobj     -8
     C0011     R0005     5
     C0011     R0006     5
     C0011     R0007     4
     C0011     R0008     5
     C0012     R0005     7
     C0012     R0006     8
     C0012     R0007     7
     C0012     R0008     10
     C0013     R0005     8
     C0013     R0006     8
     C0013     R0007     3
     C0013     R0008     7
     C0014     R0005     7
     C0014     R0006     0
     C0014     R0007     7
     C0014     R0008     7
     C0015     R0005     1
     C0015     R0006     7
     C0015     R0007     1
     C0015     R0008     5
     C0016     R0005     5
     C0016     R0006     8
     C0016     R0007     10
     C0016     R0008     6
     C0017     R0005     3
     C0017     R0006     9
     C0017     R0007     6
     C0017     R0008     8
     C0018     R0005     2
     C0018     R0006     0
     C0018     R0007     8
     C0018     R0008     9
     C0019     R0005     2
     C0019     R0006     9
     C0019     R0007     5
     C0019     R0008     10
     C0020     R0005     7
     C0020     R0006     4
     C0020     R0007     9
     C0020     R0008     4
     INT1END      'MARKER'       'INTEND'
RHS
     B   R0001     126
     B   R0002     88
     B   R0003     85
     B   R0004     45
     B   R0005     24
     B   R0006     86
     B   R0007     25
     B   R0008     33
BOUNDS
     UP BOUND     C0001     10
     UP BOUND     C0002     10
     UP BOUND     C0003     10
     UP BOUND     C0004     10
     UP BOUND     C0005     10
     UP BOUND     C0006     10
     UP BOUND     C0007     10
     UP BOUND     C0008     10
     UP BOUND     C0009     10
     UP BOUND     C0010     10
     UP BOUND     C0011     10
     UP BOUND     C0012     10
     UP BOUND     C0013     10
     UP BOUND     C0014     10
     UP BOUND     C0015     10
     UP BOUND     C0016     10
     UP BOUND     C0017     10
     UP BOUND     C0018     10
     UP BOUND     C0019     10
     UP BOUND     C0020     10
ENDATA 
